52      4       
10      10      10      10      
0       0       0       0       0       21      2       3       4       5       6       7       8       9       10      11      12      13      14      15      16      19      20      22      24      
 26      38      
6       2       1       2       2       11      17      18      25      27      30      33      34      35      36      45      51      
9       3       5       3       4       11      18      21      31      32      35      36      37      42      49      50      51      
8       6       5       4       6       8       17      18      25      34      36      42      45      51      
1       5       5       4       6       11      23      27      28      31      33      34      35      36      37      47      50      
4       10      4       5       4       10      18      25      30      31      34      36      42      43      45      49      
1       6       7       2       6       8       18      25      27      30      32      42      43      45      
4       3       5       9       5       10      21      25      30      33      34      35      44      45      46      47      
2       7       8       3       3       12      29      30      33      37      40      41      43      44      46      47      48      51      
1       8       4       4       8       10      29      31      33      34      36      41      47      48      49      50      
4       5       4       10      4       10      25      30      31      32      41      42      45      46      47      49      
2       5       5       8       4       10      27      29      30      32      40      42      43      44      46      47      
7       6       4       7       3       9       30      35      40      41      42      43      44      46      48      
6       6       4       10      2       8       30      32      33      40      41      43      44      45      
7       6       4       6       1       7       25      29      30      42      43      45      49      
6       5       5       6       5       6       31      33      34      45      47      48      
1       3       6       5       6       7       31      32      40      41      43      44      49      
2       3       4       5       5       4       23      29      41      47      
4       1       3       4       7       5       30      40      41      44      45      
5       5       8       6       8       4       35      37      40      48      
3       7       6       7       7       4       29      40      41      43      
5       10      3       4       7       4       30      40      44      46      
7       4       5       3       4       4       39      44      46      48      
8       2       3       2       5       3       29      40      43      
8       6       2       5       4       3       39      40      50      
7       5       6       6       7       2       31      40      
9       4       5       3       10      2       41      49      
3       1       7       4       5       2       39      43      
6       4       5       6       5       1       39      
10      6       8       3       2       1       39      
4       9       4       3       5       1       39      
3       6       3       7       7       1       39      
4       6       5       4       6       1       42      
5       6       10      7       4       1       40      
9       6       8       4       5       1       39      
7       6       3       9       4       1       39      
9       4       6       5       7       1       45      
8       3       6       3       4       1       42      
3       5       4       7       3       1       52      
9       5       5       2       2       1       52      
1       3       3       6       4       1       52      
1       6       6       5       4       1       52      
3       5       2       2       3       1       52      
10      3       5       2       5       1       52      
2       6       5       2       7       1       52      
4       4       6       4       2       1       52      
9       8       8       6       8       1       52      
5       1       6       4       8       1       52      
10      4       4       8       4       1       52      
9       5       6       4       7       1       52      
8       5       4       10      6       1       52      
0       0       0       0       0       0       
